p cnf 200 1110
-101 17 0
-101 -18 0
-101 -43 0
-101 -82 0
-101 -38 0
-101 34 0
-101 -39 0
-101 99 0
-101 -81 0
-101 80 0
101 -17 18 43 82 38 -34 39 -99 81 -80 0
-102 -69 0
-102 -46 0
-102 -94 0
-102 64 0
-102 47 0
-102 87 0
-102 96 0
-102 43 0
-102 -52 0
-102 72 0
102 69 46 94 -64 -47 -87 -96 -43 52 -72 0
-103 16 0
-103 3 0
-103 -86 0
-103 77 0
-103 -93 0
-103 -98 0
-103 -28 0
-103 -64 0
-103 -2 0
-103 -11 0
103 -16 -3 86 -77 93 98 28 64 2 11 0
-104 76 0
-104 93 0
-104 82 0
-104 -63 0
-104 -2 0
-104 30 0
-104 -75 0
-104 8 0
-104 50 0
-104 28 0
104 -76 -93 -82 63 2 -30 75 -8 -50 -28 0
-105 -90 0
-105 45 0
-105 -9 0
-105 -27 0
-105 -100 0
-105 -76 0
-105 88 0
-105 -77 0
-105 -52 0
-105 -81 0
105 90 -45 9 27 100 76 -88 77 52 81 0
-106 71 0
-106 36 0
-106 94 0
-106 -45 0
-106 -83 0
-106 -63 0
-106 17 0
-106 -77 0
-106 84 0
-106 -92 0
106 -71 -36 -94 45 83 63 -17 77 -84 92 0
-107 26 0
-107 -58 0
-107 -95 0
-107 60 0
-107 74 0
-107 -35 0
-107 -44 0
-107 84 0
-107 -78 0
-107 98 0
107 -26 58 95 -60 -74 35 44 -84 78 -98 0
-108 49 0
-108 -10 0
-108 6 0
-108 97 0
-108 37 0
-108 -18 0
-108 -29 0
-108 62 0
-108 13 0
-108 -73 0
108 -49 10 -6 -97 -37 18 29 -62 -13 73 0
-109 -27 0
-109 -99 0
-109 -94 0
-109 -12 0
-109 67 0
-109 -43 0
-109 96 0
-109 5 0
-109 -68 0
-109 -38 0
109 27 99 94 12 -67 43 -96 -5 68 38 0
-110 44 0
-110 97 0
-110 -24 0
-110 -16 0
-110 -90 0
-110 -40 0
-110 -27 0
-110 94 0
-110 11 0
-110 68 0
110 -44 -97 24 16 90 40 27 -94 -11 -68 0
101 102 103 104 105 106 107 108 109 110 0
-111 90 0
-111 -87 0
-111 26 0
-111 -5 0
-111 -85 0
-111 -12 0
-111 -77 0
-111 -99 0
-111 17 0
-111 -38 0
111 -90 87 -26 5 85 12 77 99 -17 38 0
-112 15 0
-112 4 0
-112 -91 0
-112 96 0
-112 62 0
-112 -82 0
-112 -46 0
-112 99 0
-112 -57 0
-112 37 0
112 -15 -4 91 -96 -62 82 46 -99 57 -37 0
-113 18 0
-113 -33 0
-113 -23 0
-113 36 0
-113 -5 0
-113 -17 0
-113 -67 0
-113 57 0
-113 61 0
-113 -13 0
113 -18 33 23 -36 5 17 67 -57 -61 13 0
-114 25 0
-114 -1 0
-114 -83 0
-114 74 0
-114 -75 0
-114 70 0
-114 81 0
-114 76 0
-114 60 0
-114 -90 0
114 -25 1 83 -74 75 -70 -81 -76 -60 90 0
-115 -5 0
-115 75 0
-115 -54 0
-115 -34 0
-115 7 0
-115 82 0
-115 -69 0
-115 64 0
-115 -22 0
-115 87 0
115 5 -75 54 34 -7 -82 69 -64 22 -87 0
-116 38 0
-116 44 0
-116 75 0
-116 -52 0
-116 1 0
-116 -95 0
-116 -88 0
-116 59 0
-116 -94 0
-116 -90 0
116 -38 -44 -75 52 -1 95 88 -59 94 90 0
-117 62 0
-117 -55 0
-117 -59 0
-117 -8 0
-117 -15 0
-117 45 0
-117 -51 0
-117 75 0
-117 76 0
-117 3 0
117 -62 55 59 8 15 -45 51 -75 -76 -3 0
-118 8 0
-118 -39 0
-118 3 0
-118 -87 0
-118 29 0
-118 -86 0
-118 45 0
-118 12 0
-118 1 0
-118 16 0
118 -8 39 -3 87 -29 86 -45 -12 -1 -16 0
-119 1 0
-119 -19 0
-119 -46 0
-119 27 0
-119 35 0
-119 87 0
-119 -18 0
-119 40 0
-119 -33 0
-119 -45 0
119 -1 19 46 -27 -35 -87 18 -40 33 45 0
-120 -13 0
-120 16 0
-120 9 0
-120 32 0
-120 92 0
-120 64 0
-120 -36 0
-120 26 0
-120 -35 0
-120 -29 0
120 13 -16 -9 -32 -92 -64 36 -26 35 29 0
111 112 113 114 115 116 117 118 119 120 0
-121 56 0
-121 -89 0
-121 55 0
-121 4 0
-121 -94 0
-121 -12 0
-121 86 0
-121 -38 0
-121 -64 0
-121 -77 0
121 -56 89 -55 -4 94 12 -86 38 64 77 0
-122 -78 0
-122 -37 0
-122 45 0
-122 21 0
-122 -100 0
-122 4 0
-122 -97 0
-122 -68 0
-122 -13 0
-122 55 0
122 78 37 -45 -21 100 -4 97 68 13 -55 0
-123 -42 0
-123 51 0
-123 -85 0
-123 76 0
-123 -23 0
-123 80 0
-123 -25 0
-123 -22 0
-123 43 0
-123 -14 0
123 42 -51 85 -76 23 -80 25 22 -43 14 0
-124 -77 0
-124 85 0
-124 -90 0
-124 81 0
-124 -2 0
-124 -48 0
-124 40 0
-124 42 0
-124 65 0
-124 -18 0
124 77 -85 90 -81 2 48 -40 -42 -65 18 0
-125 35 0
-125 -4 0
-125 -38 0
-125 -13 0
-125 -48 0
-125 28 0
-125 -2 0
-125 65 0
-125 86 0
-125 49 0
125 -35 4 38 13 48 -28 2 -65 -86 -49 0
-126 64 0
-126 -77 0
-126 -37 0
-126 44 0
-126 87 0
-126 84 0
-126 28 0
-126 45 0
-126 -9 0
-126 -89 0
126 -64 77 37 -44 -87 -84 -28 -45 9 89 0
-127 -32 0
-127 84 0
-127 -73 0
-127 83 0
-127 -26 0
-127 -88 0
-127 -78 0
-127 1 0
-127 52 0
-127 -58 0
127 32 -84 73 -83 26 88 78 -1 -52 58 0
-128 89 0
-128 66 0
-128 31 0
-128 -27 0
-128 -58 0
-128 74 0
-128 -38 0
-128 73 0
-128 -99 0
-128 -15 0
128 -89 -66 -31 27 58 -74 38 -73 99 15 0
-129 21 0
-129 66 0
-129 44 0
-129 -8 0
-129 23 0
-129 20 0
-129 -81 0
-129 -89 0
-129 72 0
-129 74 0
129 -21 -66 -44 8 -23 -20 81 89 -72 -74 0
-130 62 0
-130 -44 0
-130 6 0
-130 -1 0
-130 -21 0
-130 -73 0
-130 88 0
-130 -18 0
-130 49 0
-130 -39 0
130 -62 44 -6 1 21 73 -88 18 -49 39 0
121 122 123 124 125 126 127 128 129 130 0
-131 -58 0
-131 97 0
-131 -92 0
-131 -36 0
-131 -87 0
-131 66 0
-131 25 0
-131 -69 0
-131 32 0
-131 37 0
131 58 -97 92 36 87 -66 -25 69 -32 -37 0
-132 -97 0
-132 10 0
-132 82 0
-132 -68 0
-132 100 0
-132 29 0
-132 88 0
-132 60 0
-132 14 0
-132 93 0
132 97 -10 -82 68 -100 -29 -88 -60 -14 -93 0
-133 -61 0
-133 -22 0
-133 -50 0
-133 -98 0
-133 36 0
-133 41 0
-133 10 0
-133 51 0
-133 -35 0
-133 -78 0
133 61 22 50 98 -36 -41 -10 -51 35 78 0
-134 -56 0
-134 14 0
-134 -31 0
-134 20 0
-134 7 0
-134 -27 0
-134 -1 0
-134 -91 0
-134 -74 0
-134 45 0
134 56 -14 31 -20 -7 27 1 91 74 -45 0
-135 96 0
-135 53 0
-135 -31 0
-135 -83 0
-135 52 0
-135 92 0
-135 -57 0
-135 -28 0
-135 76 0
-135 -37 0
135 -96 -53 31 83 -52 -92 57 28 -76 37 0
-136 -14 0
-136 -42 0
-136 -84 0
-136 -23 0
-136 13 0
-136 54 0
-136 -100 0
-136 -75 0
-136 -8 0
-136 -90 0
136 14 42 84 23 -13 -54 100 75 8 90 0
-137 22 0
-137 -69 0
-137 -54 0
-137 -18 0
-137 35 0
-137 30 0
-137 -87 0
-137 -59 0
-137 -82 0
-137 92 0
137 -22 69 54 18 -35 -30 87 59 82 -92 0
-138 -55 0
-138 46 0
-138 94 0
-138 -20 0
-138 86 0
-138 -53 0
-138 52 0
-138 67 0
-138 77 0
-138 -84 0
138 55 -46 -94 20 -86 53 -52 -67 -77 84 0
-139 -43 0
-139 40 0
-139 -57 0
-139 -45 0
-139 26 0
-139 -15 0
-139 79 0
-139 80 0
-139 -33 0
-139 88 0
139 43 -40 57 45 -26 15 -79 -80 33 -88 0
-140 -19 0
-140 75 0
-140 55 0
-140 20 0
-140 -29 0
-140 83 0
-140 76 0
-140 -59 0
-140 14 0
-140 36 0
140 19 -75 -55 -20 29 -83 -76 59 -14 -36 0
131 132 133 134 135 136 137 138 139 140 0
-141 4 0
-141 15 0
-141 -74 0
-141 -97 0
-141 16 0
-141 -63 0
-141 -68 0
-141 -82 0
-141 -27 0
-141 60 0
141 -4 -15 74 97 -16 63 68 82 27 -60 0
-142 -77 0
-142 60 0
-142 -79 0
-142 51 0
-142 33 0
-142 -17 0
-142 -63 0
-142 -75 0
-142 -86 0
-142 46 0
142 77 -60 79 -51 -33 17 63 75 86 -46 0
-143 -72 0
-143 -62 0
-143 -29 0
-143 100 0
-143 41 0
-143 1 0
-143 39 0
-143 55 0
-143 81 0
-143 48 0
143 72 62 29 -100 -41 -1 -39 -55 -81 -48 0
-144 -85 0
-144 47 0
-144 -68 0
-144 99 0
-144 30 0
-144 -18 0
-144 -89 0
-144 93 0
-144 -25 0
-144 91 0
144 85 -47 68 -99 -30 18 89 -93 25 -91 0
-145 17 0
-145 -61 0
-145 47 0
-145 -74 0
-145 66 0
-145 7 0
-145 -5 0
-145 -84 0
-145 9 0
-145 -19 0
145 -17 61 -47 74 -66 -7 5 84 -9 19 0
-146 -63 0
-146 55 0
-146 -80 0
-146 74 0
-146 -6 0
-146 -99 0
-146 -87 0
-146 62 0
-146 -31 0
-146 -14 0
146 63 -55 80 -74 6 99 87 -62 31 14 0
-147 23 0
-147 -30 0
-147 81 0
-147 -33 0
-147 -22 0
-147 47 0
-147 -38 0
-147 -12 0
-147 8 0
-147 71 0
147 -23 30 -81 33 22 -47 38 12 -8 -71 0
-148 9 0
-148 97 0
-148 -13 0
-148 -98 0
-148 -57 0
-148 77 0
-148 -51 0
-148 -47 0
-148 93 0
-148 69 0
148 -9 -97 13 98 57 -77 51 47 -93 -69 0
-149 -64 0
-149 -35 0
-149 45 0
-149 -97 0
-149 -13 0
-149 -53 0
-149 -39 0
-149 -72 0
-149 -16 0
-149 95 0
149 64 35 -45 97 13 53 39 72 16 -95 0
-150 43 0
-150 -34 0
-150 -51 0
-150 87 0
-150 -84 0
-150 -16 0
-150 62 0
-150 94 0
-150 54 0
-150 -23 0
150 -43 34 51 -87 84 16 -62 -94 -54 23 0
141 142 143 144 145 146 147 148 149 150 0
-151 -75 0
-151 -6 0
-151 14 0
-151 -48 0
-151 77 0
-151 -88 0
-151 100 0
-151 -22 0
-151 47 0
-151 -66 0
151 75 6 -14 48 -77 88 -100 22 -47 66 0
-152 -92 0
-152 -21 0
-152 -45 0
-152 -31 0
-152 26 0
-152 -42 0
-152 49 0
-152 -81 0
-152 11 0
-152 -95 0
152 92 21 45 31 -26 42 -49 81 -11 95 0
-153 -44 0
-153 -15 0
-153 -4 0
-153 -60 0
-153 -93 0
-153 -70 0
-153 48 0
-153 -56 0
-153 -99 0
-153 -49 0
153 44 15 4 60 93 70 -48 56 99 49 0
-154 81 0
-154 93 0
-154 78 0
-154 65 0
-154 15 0
-154 -43 0
-154 -74 0
-154 -25 0
-154 -18 0
-154 21 0
154 -81 -93 -78 -65 -15 43 74 25 18 -21 0
-155 -69 0
-155 -70 0
-155 28 0
-155 -34 0
-155 -25 0
-155 7 0
-155 -93 0
-155 97 0
-155 96 0
-155 5 0
155 69 70 -28 34 25 -7 93 -97 -96 -5 0
-156 -92 0
-156 48 0
-156 -42 0
-156 -16 0
-156 -64 0
-156 32 0
-156 41 0
-156 -20 0
-156 24 0
-156 83 0
156 92 -48 42 16 64 -32 -41 20 -24 -83 0
-157 8 0
-157 84 0
-157 -41 0
-157 69 0
-157 -15 0
-157 50 0
-157 -44 0
-157 -3 0
-157 -32 0
-157 17 0
157 -8 -84 41 -69 15 -50 44 3 32 -17 0
-158 61 0
-158 -50 0
-158 -5 0
-158 -37 0
-158 -52 0
-158 -60 0
-158 51 0
-158 -22 0
-158 -59 0
-158 81 0
158 -61 50 5 37 52 60 -51 22 59 -81 0
-159 20 0
-159 -72 0
-159 58 0
-159 27 0
-159 77 0
-159 48 0
-159 -65 0
-159 54 0
-159 -12 0
-159 -5 0
159 -20 72 -58 -27 -77 -48 65 -54 12 5 0
-160 64 0
-160 -44 0
-160 59 0
-160 -47 0
-160 38 0
-160 -61 0
-160 90 0
-160 67 0
-160 -33 0
-160 -40 0
160 -64 44 -59 47 -38 61 -90 -67 33 40 0
151 152 153 154 155 156 157 158 159 160 0
-161 -38 0
-161 -74 0
-161 85 0
-161 54 0
-161 -59 0
-161 -44 0
-161 68 0
-161 56 0
-161 -95 0
-161 -97 0
161 38 74 -85 -54 59 44 -68 -56 95 97 0
-162 -27 0
-162 10 0
-162 -98 0
-162 -20 0
-162 -36 0
-162 67 0
-162 -72 0
-162 -2 0
-162 77 0
-162 -54 0
162 27 -10 98 20 36 -67 72 2 -77 54 0
-163 -64 0
-163 -31 0
-163 -33 0
-163 1 0
-163 -82 0
-163 -58 0
-163 43 0
-163 5 0
-163 21 0
-163 44 0
163 64 31 33 -1 82 58 -43 -5 -21 -44 0
-164 86 0
-164 83 0
-164 -33 0
-164 44 0
-164 -79 0
-164 52 0
-164 -57 0
-164 -60 0
-164 94 0
-164 45 0
164 -86 -83 33 -44 79 -52 57 60 -94 -45 0
-165 54 0
-165 78 0
-165 41 0
-165 -3 0
-165 -1 0
-165 35 0
-165 -22 0
-165 96 0
-165 92 0
-165 68 0
165 -54 -78 -41 3 1 -35 22 -96 -92 -68 0
-166 -17 0
-166 -80 0
-166 62 0
-166 -71 0
-166 -59 0
-166 44 0
-166 54 0
-166 30 0
-166 -27 0
-166 14 0
166 17 80 -62 71 59 -44 -54 -30 27 -14 0
-167 95 0
-167 16 0
-167 53 0
-167 -75 0
-167 70 0
-167 1 0
-167 -41 0
-167 -62 0
-167 -78 0
-167 -50 0
167 -95 -16 -53 75 -70 -1 41 62 78 50 0
-168 -16 0
-168 -67 0
-168 82 0
-168 -46 0
-168 31 0
-168 89 0
-168 6 0
-168 38 0
-168 -17 0
-168 83 0
168 16 67 -82 46 -31 -89 -6 -38 17 -83 0
-169 18 0
-169 84 0
-169 61 0
-169 71 0
-169 -13 0
-169 43 0
-169 -69 0
-169 21 0
-169 -83 0
-169 -2 0
169 -18 -84 -61 -71 13 -43 69 -21 83 2 0
-170 71 0
-170 -13 0
-170 7 0
-170 8 0
-170 -64 0
-170 48 0
-170 -21 0
-170 90 0
-170 83 0
-170 70 0
170 -71 13 -7 -8 64 -48 21 -90 -83 -70 0
161 162 163 164 165 166 167 168 169 170 0
-171 82 0
-171 31 0
-171 11 0
-171 -99 0
-171 57 0
-171 -47 0
-171 88 0
-171 76 0
-171 -38 0
-171 23 0
171 -82 -31 -11 99 -57 47 -88 -76 38 -23 0
-172 26 0
-172 -57 0
-172 94 0
-172 -63 0
-172 -47 0
-172 -16 0
-172 35 0
-172 72 0
-172 69 0
-172 -54 0
172 -26 57 -94 63 47 16 -35 -72 -69 54 0
-173 -25 0
-173 98 0
-173 67 0
-173 -91 0
-173 -23 0
-173 -76 0
-173 52 0
-173 -42 0
-173 62 0
-173 -6 0
173 25 -98 -67 91 23 76 -52 42 -62 6 0
-174 -70 0
-174 -50 0
-174 -28 0
-174 -13 0
-174 -36 0
-174 29 0
-174 -82 0
-174 94 0
-174 -33 0
-174 -4 0
174 70 50 28 13 36 -29 82 -94 33 4 0
-175 75 0
-175 -70 0
-175 -13 0
-175 -88 0
-175 -9 0
-175 24 0
-175 42 0
-175 39 0
-175 23 0
-175 -98 0
175 -75 70 13 88 9 -24 -42 -39 -23 98 0
-176 -60 0
-176 16 0
-176 -1 0
-176 -10 0
-176 72 0
-176 30 0
-176 -77 0
-176 -51 0
-176 90 0
-176 21 0
176 60 -16 1 10 -72 -30 77 51 -90 -21 0
-177 -73 0
-177 21 0
-177 62 0
-177 -95 0
-177 -45 0
-177 51 0
-177 22 0
-177 -96 0
-177 -13 0
-177 -12 0
177 73 -21 -62 95 45 -51 -22 96 13 12 0
-178 65 0
-178 22 0
-178 61 0
-178 -1 0
-178 -49 0
-178 -64 0
-178 -39 0
-178 32 0
-178 85 0
-178 -86 0
178 -65 -22 -61 1 49 64 39 -32 -85 86 0
-179 29 0
-179 20 0
-179 -24 0
-179 -88 0
-179 83 0
-179 -86 0
-179 44 0
-179 66 0
-179 80 0
-179 -21 0
179 -29 -20 24 88 -83 86 -44 -66 -80 21 0
-180 -7 0
-180 66 0
-180 -6 0
-180 38 0
-180 45 0
-180 -49 0
-180 8 0
-180 76 0
-180 -63 0
-180 -72 0
180 7 -66 6 -38 -45 49 -8 -76 63 72 0
171 172 173 174 175 176 177 178 179 180 0
-181 86 0
-181 -57 0
-181 -89 0
-181 91 0
-181 -65 0
-181 -8 0
-181 -11 0
-181 19 0
-181 60 0
-181 16 0
181 -86 57 89 -91 65 8 11 -19 -60 -16 0
-182 7 0
-182 81 0
-182 -63 0
-182 -46 0
-182 -1 0
-182 -3 0
-182 42 0
-182 15 0
-182 -17 0
-182 -14 0
182 -7 -81 63 46 1 3 -42 -15 17 14 0
-183 -83 0
-183 95 0
-183 64 0
-183 74 0
-183 -47 0
-183 -57 0
-183 28 0
-183 70 0
-183 -97 0
-183 -46 0
183 83 -95 -64 -74 47 57 -28 -70 97 46 0
-184 79 0
-184 -13 0
-184 54 0
-184 25 0
-184 51 0
-184 -9 0
-184 31 0
-184 -87 0
-184 -44 0
-184 -99 0
184 -79 13 -54 -25 -51 9 -31 87 44 99 0
-185 1 0
-185 24 0
-185 -31 0
-185 84 0
-185 -67 0
-185 96 0
-185 -20 0
-185 14 0
-185 -46 0
-185 -50 0
185 -1 -24 31 -84 67 -96 20 -14 46 50 0
-186 41 0
-186 49 0
-186 32 0
-186 -84 0
-186 81 0
-186 -78 0
-186 93 0
-186 8 0
-186 -22 0
-186 46 0
186 -41 -49 -32 84 -81 78 -93 -8 22 -46 0
-187 45 0
-187 84 0
-187 -42 0
-187 79 0
-187 27 0
-187 47 0
-187 -81 0
-187 48 0
-187 -66 0
-187 54 0
187 -45 -84 42 -79 -27 -47 81 -48 66 -54 0
-188 -89 0
-188 -33 0
-188 16 0
-188 -99 0
-188 -27 0
-188 -5 0
-188 -22 0
-188 -20 0
-188 -12 0
-188 -54 0
188 89 33 -16 99 27 5 22 20 12 54 0
-189 -88 0
-189 -96 0
-189 -97 0
-189 65 0
-189 51 0
-189 8 0
-189 70 0
-189 26 0
-189 77 0
-189 -39 0
189 88 96 97 -65 -51 -8 -70 -26 -77 39 0
-190 96 0
-190 35 0
-190 -50 0
-190 -98 0
-190 -58 0
-190 45 0
-190 86 0
-190 93 0
-190 -67 0
-190 -49 0
190 -96 -35 50 98 58 -45 -86 -93 67 49 0
181 182 183 184 185 186 187 188 189 190 0
-191 57 0
-191 10 0
-191 -50 0
-191 89 0
-191 56 0
-191 65 0
-191 36 0
-191 -11 0
-191 91 0
-191 -73 0
191 -57 -10 50 -89 -56 -65 -36 11 -91 73 0
-192 -72 0
-192 -10 0
-192 -100 0
-192 -77 0
-192 -4 0
-192 -11 0
-192 76 0
-192 -87 0
-192 -63 0
-192 30 0
192 72 10 100 77 4 11 -76 87 63 -30 0
-193 -74 0
-193 -4 0
-193 6 0
-193 21 0
-193 -99 0
-193 -27 0
-193 34 0
-193 -69 0
-193 -56 0
-193 13 0
193 74 4 -6 -21 99 27 -34 69 56 -13 0
-194 -35 0
-194 16 0
-194 -10 0
-194 -62 0
-194 -50 0
-194 -73 0
-194 -88 0
-194 -54 0
-194 -60 0
-194 98 0
194 35 -16 10 62 50 73 88 54 60 -98 0
-195 47 0
-195 76 0
-195 52 0
-195 -61 0
-195 -93 0
-195 62 0
-195 44 0
-195 -46 0
-195 2 0
-195 -34 0
195 -47 -76 -52 61 93 -62 -44 46 -2 34 0
-196 -37 0
-196 82 0
-196 6 0
-196 -3 0
-196 17 0
-196 -83 0
-196 -20 0
-196 81 0
-196 60 0
-196 1 0
196 37 -82 -6 3 -17 83 20 -81 -60 -1 0
-197 100 0
-197 12 0
-197 -20 0
-197 9 0
-197 45 0
-197 -21 0
-197 74 0
-197 41 0
-197 -79 0
-197 62 0
197 -100 -12 20 -9 -45 21 -74 -41 79 -62 0
-198 -71 0
-198 -98 0
-198 18 0
-198 -50 0
-198 17 0
-198 25 0
-198 68 0
-198 -30 0
-198 -65 0
-198 -54 0
198 71 98 -18 50 -17 -25 -68 30 65 54 0
-199 94 0
-199 17 0
-199 -35 0
-199 -79 0
-199 75 0
-199 -20 0
-199 53 0
-199 81 0
-199 48 0
-199 27 0
199 -94 -17 35 79 -75 20 -53 -81 -48 -27 0
-200 -34 0
-200 49 0
-200 -90 0
-200 89 0
-200 37 0
-200 -48 0
-200 94 0
-200 -59 0
-200 -51 0
-200 -47 0
200 34 -49 90 -89 -37 48 -94 59 51 47 0
191 192 193 194 195 196 197 198 199 200 0
